INPUT_PARAMETERS
#Parameters (1.General)
suffix			autotest
calculation     scf
ntype			1
#nbands			6
symmetry		0
pseudo_dir      .
pseudo_type     upf201
gamma_only      1

#Parameters (2.Iteration)
ecutwfc			40
dr2				1e-7
niter			100


#Parameters (3.Basis)
basis_type		lcao
#basis_type		pw

#Parameters (4.Smearing)
smearing		gauss
sigma			0.002

#Parameters (5.Mixing)
mixing_type		pulay
mixing_beta		0.7
mixing_gg0      1.5

#ks_solver       genelpa
#ks_solver       cg

force 0
stress 0
