ATOMIC_SPECIES
Si 14 Si_ONCV_PBE-1.0.upf

NUMERICAL_ORBITAL
./Si_gga_8au_60Ry_2s2p1d.orb

LATTICE_CONSTANT
41.6  // add lattice constant

LATTICE_VECTORS
1. 0. 0.
0. 1. 0.
0. 0. 1.

ATOMIC_POSITIONS
Direct 

Si	// Element type	
0.0	// magnetism
512	
  0.0625000000000000  0.1875000000000000  0.0625000000000000
  0.6250000000000000  0.5000000000000000  0.7500000000000001
  0.6875000000000000  0.6875000000000000  0.9375000000000000
  0.5000000000000000  0.6250000000000000  0.7500000000000001
  0.5625000000000000  0.5625000000000000  0.9375000000000000
  0.5000000000000000  0.5000000000000000  0.8750000000000001
  0.5625000000000000  0.6875000000000000  0.8125000000000001
  0.6250000000000000  0.6250000000000000  0.6250000000000000
  0.6875000000000000  0.5625000000000000  0.5625000000000000
  0.6250000000000000  0.5000000000000000  0.5000000000000000
  0.6875000000000000  0.6875000000000000  0.6875000000000000
  0.5000000000000000  0.6250000000000000  0.5000000000000000
  0.5625000000000000  0.5625000000000000  0.6875000000000000
  0.5000000000000000  0.5000000000000000  0.6250000000000000
  0.6875000000000000  0.5625000000000000  0.8125000000000001
  0.5625000000000000  0.6875000000000000  0.5625000000000000
  0.6875000000000000  0.5625000000000000  0.3125000000000000
  0.6250000000000000  0.5000000000000000  0.2500000000000000
  0.6875000000000000  0.6875000000000000  0.4375000000000001
  0.5000000000000000  0.6250000000000000  0.2500000000000000
  0.5625000000000000  0.5625000000000000  0.4375000000000001
  0.5000000000000000  0.5000000000000000  0.3750000000000001
  0.5625000000000000  0.6875000000000000  0.3125000000000000
  0.6250000000000000  0.6250000000000000  0.1250000000000000
  0.6875000000000000  0.5625000000000000  0.0625000000000000
  0.6250000000000000  0.5000000000000000  0.0000000000000000
  0.6875000000000000  0.6875000000000000  0.1875000000000000
  0.5000000000000000  0.6250000000000000  0.0000000000000000
  0.5625000000000000  0.5625000000000000  0.1875000000000000
  0.6250000000000000  0.6250000000000000  0.3750000000000001
  0.5000000000000000  0.5000000000000000  0.1250000000000000
  0.6250000000000000  0.6250000000000000  0.8750000000000001
  0.5000000000000000  0.7500000000000001  0.1250000000000000
  0.6250000000000000  0.7500000000000001  0.7500000000000001
  0.6875000000000000  0.9375000000000000  0.9375000000000000
  0.5000000000000000  0.8750000000000001  0.7500000000000001
  0.5625000000000000  0.8125000000000001  0.9375000000000000
  0.5000000000000000  0.7500000000000001  0.8750000000000001
  0.5625000000000000  0.9375000000000000  0.8125000000000001
  0.6250000000000000  0.8750000000000001  0.6250000000000000
  0.6875000000000000  0.8125000000000001  0.5625000000000000
  0.6250000000000000  0.7500000000000001  0.5000000000000000
  0.6875000000000000  0.9375000000000000  0.6875000000000000
  0.5000000000000000  0.8750000000000001  0.5000000000000000
  0.5625000000000000  0.8125000000000001  0.6875000000000000
  0.5000000000000000  0.7500000000000001  0.6250000000000000
  0.5625000000000000  0.9375000000000000  0.0625000000000000
  0.5625000000000000  0.9375000000000000  0.5625000000000000
  0.6875000000000000  0.8125000000000001  0.3125000000000000
  0.6250000000000000  0.7500000000000001  0.2500000000000000
  0.6875000000000000  0.9375000000000000  0.4375000000000001
  0.5000000000000000  0.8750000000000001  0.2500000000000000
  0.5625000000000000  0.8125000000000001  0.4375000000000001
  0.5000000000000000  0.7500000000000001  0.3750000000000001
  0.5625000000000000  0.9375000000000000  0.3125000000000000
  0.6250000000000000  0.8750000000000001  0.1250000000000000
  0.6875000000000000  0.8125000000000001  0.0625000000000000
  0.6250000000000000  0.7500000000000001  0.0000000000000000
  0.6875000000000000  0.9375000000000000  0.1875000000000000
  0.5000000000000000  0.8750000000000001  0.0000000000000000
  0.5625000000000000  0.8125000000000001  0.1875000000000000
  0.6250000000000000  0.8750000000000001  0.3750000000000001
  0.6875000000000000  0.8125000000000001  0.8125000000000001
  0.5625000000000000  0.6875000000000000  0.0625000000000000
  0.6875000000000000  0.3125000000000000  0.8125000000000001
  0.6250000000000000  0.0000000000000000  0.7500000000000001
  0.6875000000000000  0.1875000000000000  0.9375000000000000
  0.5000000000000000  0.1250000000000000  0.7500000000000001
  0.5625000000000000  0.0625000000000000  0.9375000000000000
  0.5000000000000000  0.0000000000000000  0.8750000000000001
  0.5625000000000000  0.1875000000000000  0.8125000000000001
  0.6250000000000000  0.1250000000000000  0.6250000000000000
  0.6875000000000000  0.0625000000000000  0.5625000000000000
  0.6250000000000000  0.0000000000000000  0.5000000000000000
  0.6875000000000000  0.1875000000000000  0.6875000000000000
  0.5000000000000000  0.1250000000000000  0.5000000000000000
  0.5625000000000000  0.0625000000000000  0.6875000000000000
  0.5000000000000000  0.0000000000000000  0.6250000000000000
  0.6875000000000000  0.0625000000000000  0.8125000000000001
  0.5625000000000000  0.1875000000000000  0.5625000000000000
  0.6875000000000000  0.0625000000000000  0.3125000000000000
  0.6250000000000000  0.0000000000000000  0.2500000000000000
  0.6875000000000000  0.1875000000000000  0.4375000000000001
  0.5000000000000000  0.1250000000000000  0.2500000000000000
  0.5625000000000000  0.0625000000000000  0.4375000000000001
  0.5000000000000000  0.0000000000000000  0.3750000000000001
  0.5625000000000000  0.1875000000000000  0.3125000000000000
  0.6250000000000000  0.1250000000000000  0.1250000000000000
  0.6875000000000000  0.0625000000000000  0.0625000000000000
  0.6250000000000000  0.0000000000000000  0.0000000000000000
  0.6875000000000000  0.1875000000000000  0.1875000000000000
  0.5000000000000000  0.1250000000000000  0.0000000000000000
  0.5625000000000000  0.0625000000000000  0.1875000000000000
  0.6250000000000000  0.1250000000000000  0.3750000000000001
  0.6250000000000000  0.3750000000000001  0.8750000000000001
  0.6250000000000000  0.1250000000000000  0.8750000000000001
  0.5000000000000000  0.2500000000000000  0.1250000000000000
  0.6250000000000000  0.2500000000000000  0.7500000000000001
  0.6875000000000000  0.4375000000000001  0.9375000000000000
  0.5000000000000000  0.3750000000000001  0.7500000000000001
  0.5625000000000000  0.3125000000000000  0.9375000000000000
  0.5000000000000000  0.2500000000000000  0.8750000000000001
  0.5625000000000000  0.4375000000000001  0.8125000000000001
  0.6250000000000000  0.3750000000000001  0.6250000000000000
  0.6875000000000000  0.3125000000000000  0.5625000000000000
  0.6250000000000000  0.2500000000000000  0.5000000000000000
  0.6875000000000000  0.4375000000000001  0.6875000000000000
  0.5000000000000000  0.3750000000000001  0.5000000000000000
  0.5625000000000000  0.3125000000000000  0.6875000000000000
  0.5000000000000000  0.2500000000000000  0.6250000000000000
  0.5625000000000000  0.4375000000000001  0.0625000000000000
  0.5625000000000000  0.4375000000000001  0.5625000000000000
  0.6875000000000000  0.3125000000000000  0.3125000000000000
  0.6250000000000000  0.2500000000000000  0.2500000000000000
  0.6875000000000000  0.4375000000000001  0.4375000000000001
  0.5000000000000000  0.3750000000000001  0.2500000000000000
  0.5625000000000000  0.3125000000000000  0.4375000000000001
  0.5000000000000000  0.2500000000000000  0.3750000000000001
  0.5625000000000000  0.4375000000000001  0.3125000000000000
  0.6250000000000000  0.3750000000000001  0.1250000000000000
  0.6875000000000000  0.3125000000000000  0.0625000000000000
  0.6250000000000000  0.2500000000000000  0.0000000000000000
  0.6875000000000000  0.4375000000000001  0.1875000000000000
  0.5000000000000000  0.3750000000000001  0.0000000000000000
  0.5625000000000000  0.3125000000000000  0.1875000000000000
  0.6250000000000000  0.3750000000000001  0.3750000000000001
  0.5000000000000000  0.0000000000000000  0.1250000000000000
  0.6250000000000000  0.8750000000000001  0.8750000000000001
  0.7500000000000001  0.0000000000000000  0.1250000000000000
  0.8750000000000001  0.5000000000000000  0.7500000000000001
  0.9375000000000000  0.6875000000000000  0.9375000000000000
  0.7500000000000001  0.6250000000000000  0.7500000000000001
  0.8125000000000001  0.5625000000000000  0.9375000000000000
  0.7500000000000001  0.5000000000000000  0.8750000000000001
  0.8125000000000001  0.6875000000000000  0.8125000000000001
  0.8750000000000001  0.6250000000000000  0.6250000000000000
  0.9375000000000000  0.5625000000000000  0.5625000000000000
  0.8750000000000001  0.5000000000000000  0.5000000000000000
  0.9375000000000000  0.6875000000000000  0.6875000000000000
  0.7500000000000001  0.6250000000000000  0.5000000000000000
  0.8125000000000001  0.5625000000000000  0.6875000000000000
  0.7500000000000001  0.5000000000000000  0.6250000000000000
  0.9375000000000000  0.5625000000000000  0.8125000000000001
  0.8125000000000001  0.6875000000000000  0.5625000000000000
  0.9375000000000000  0.5625000000000000  0.3125000000000000
  0.8750000000000001  0.5000000000000000  0.2500000000000000
  0.9375000000000000  0.6875000000000000  0.4375000000000001
  0.7500000000000001  0.6250000000000000  0.2500000000000000
  0.8125000000000001  0.5625000000000000  0.4375000000000001
  0.7500000000000001  0.5000000000000000  0.3750000000000001
  0.8125000000000001  0.6875000000000000  0.3125000000000000
  0.8750000000000001  0.6250000000000000  0.1250000000000000
  0.9375000000000000  0.5625000000000000  0.0625000000000000
  0.8750000000000001  0.5000000000000000  0.0000000000000000
  0.9375000000000000  0.6875000000000000  0.1875000000000000
  0.7500000000000001  0.6250000000000000  0.0000000000000000
  0.8125000000000001  0.5625000000000000  0.1875000000000000
  0.8750000000000001  0.6250000000000000  0.3750000000000001
  0.7500000000000001  0.5000000000000000  0.1250000000000000
  0.8750000000000001  0.6250000000000000  0.8750000000000001
  0.7500000000000001  0.7500000000000001  0.1250000000000000
  0.8750000000000001  0.7500000000000001  0.7500000000000001
  0.9375000000000000  0.9375000000000000  0.9375000000000000
  0.7500000000000001  0.8750000000000001  0.7500000000000001
  0.8125000000000001  0.8125000000000001  0.9375000000000000
  0.7500000000000001  0.7500000000000001  0.8750000000000001
  0.8125000000000001  0.9375000000000000  0.8125000000000001
  0.8750000000000001  0.8750000000000001  0.6250000000000000
  0.9375000000000000  0.8125000000000001  0.5625000000000000
  0.8750000000000001  0.7500000000000001  0.5000000000000000
  0.9375000000000000  0.9375000000000000  0.6875000000000000
  0.7500000000000001  0.8750000000000001  0.5000000000000000
  0.8125000000000001  0.8125000000000001  0.6875000000000000
  0.7500000000000001  0.7500000000000001  0.6250000000000000
  0.8125000000000001  0.9375000000000000  0.0625000000000000
  0.8125000000000001  0.9375000000000000  0.5625000000000000
  0.9375000000000000  0.8125000000000001  0.3125000000000000
  0.8750000000000001  0.7500000000000001  0.2500000000000000
  0.9375000000000000  0.9375000000000000  0.4375000000000001
  0.7500000000000001  0.8750000000000001  0.2500000000000000
  0.8125000000000001  0.8125000000000001  0.4375000000000001
  0.7500000000000001  0.7500000000000001  0.3750000000000001
  0.8125000000000001  0.9375000000000000  0.3125000000000000
  0.8750000000000001  0.8750000000000001  0.1250000000000000
  0.9375000000000000  0.8125000000000001  0.0625000000000000
  0.8750000000000001  0.7500000000000001  0.0000000000000000
  0.9375000000000000  0.9375000000000000  0.1875000000000000
  0.7500000000000001  0.8750000000000001  0.0000000000000000
  0.8125000000000001  0.8125000000000001  0.1875000000000000
  0.8750000000000001  0.8750000000000001  0.3750000000000001
  0.8125000000000001  0.1875000000000000  0.0625000000000000
  0.8125000000000001  0.6875000000000000  0.0625000000000000
  0.9375000000000000  0.3125000000000000  0.8125000000000001
  0.8750000000000001  0.0000000000000000  0.7500000000000001
  0.9375000000000000  0.1875000000000000  0.9375000000000000
  0.7500000000000001  0.1250000000000000  0.7500000000000001
  0.8125000000000001  0.0625000000000000  0.9375000000000000
  0.7500000000000001  0.0000000000000000  0.8750000000000001
  0.8125000000000001  0.1875000000000000  0.8125000000000001
  0.8750000000000001  0.1250000000000000  0.6250000000000000
  0.9375000000000000  0.0625000000000000  0.5625000000000000
  0.8750000000000001  0.0000000000000000  0.5000000000000000
  0.9375000000000000  0.1875000000000000  0.6875000000000000
  0.7500000000000001  0.1250000000000000  0.5000000000000000
  0.8125000000000001  0.0625000000000000  0.6875000000000000
  0.7500000000000001  0.0000000000000000  0.6250000000000000
  0.9375000000000000  0.0625000000000000  0.8125000000000001
  0.8125000000000001  0.1875000000000000  0.5625000000000000
  0.9375000000000000  0.0625000000000000  0.3125000000000000
  0.8750000000000001  0.0000000000000000  0.2500000000000000
  0.9375000000000000  0.1875000000000000  0.4375000000000001
  0.7500000000000001  0.1250000000000000  0.2500000000000000
  0.8125000000000001  0.0625000000000000  0.4375000000000001
  0.7500000000000001  0.0000000000000000  0.3750000000000001
  0.8125000000000001  0.1875000000000000  0.3125000000000000
  0.8750000000000001  0.1250000000000000  0.1250000000000000
  0.9375000000000000  0.0625000000000000  0.0625000000000000
  0.8750000000000001  0.0000000000000000  0.0000000000000000
  0.9375000000000000  0.1875000000000000  0.1875000000000000
  0.7500000000000001  0.1250000000000000  0.0000000000000000
  0.8125000000000001  0.0625000000000000  0.1875000000000000
  0.8750000000000001  0.1250000000000000  0.3750000000000001
  0.8750000000000001  0.3750000000000001  0.8750000000000001
  0.8750000000000001  0.1250000000000000  0.8750000000000001
  0.7500000000000001  0.2500000000000000  0.1250000000000000
  0.8750000000000001  0.2500000000000000  0.7500000000000001
  0.9375000000000000  0.4375000000000001  0.9375000000000000
  0.7500000000000001  0.3750000000000001  0.7500000000000001
  0.8125000000000001  0.3125000000000000  0.9375000000000000
  0.7500000000000001  0.2500000000000000  0.8750000000000001
  0.8125000000000001  0.4375000000000001  0.8125000000000001
  0.8750000000000001  0.3750000000000001  0.6250000000000000
  0.9375000000000000  0.3125000000000000  0.5625000000000000
  0.8750000000000001  0.2500000000000000  0.5000000000000000
  0.9375000000000000  0.4375000000000001  0.6875000000000000
  0.7500000000000001  0.3750000000000001  0.5000000000000000
  0.8125000000000001  0.3125000000000000  0.6875000000000000
  0.7500000000000001  0.2500000000000000  0.6250000000000000
  0.8125000000000001  0.4375000000000001  0.0625000000000000
  0.8125000000000001  0.4375000000000001  0.5625000000000000
  0.9375000000000000  0.3125000000000000  0.3125000000000000
  0.8750000000000001  0.2500000000000000  0.2500000000000000
  0.9375000000000000  0.4375000000000001  0.4375000000000001
  0.7500000000000001  0.3750000000000001  0.2500000000000000
  0.8125000000000001  0.3125000000000000  0.4375000000000001
  0.7500000000000001  0.2500000000000000  0.3750000000000001
  0.8125000000000001  0.4375000000000001  0.3125000000000000
  0.8750000000000001  0.3750000000000001  0.1250000000000000
  0.9375000000000000  0.3125000000000000  0.0625000000000000
  0.8750000000000001  0.2500000000000000  0.0000000000000000
  0.9375000000000000  0.4375000000000001  0.1875000000000000
  0.7500000000000001  0.3750000000000001  0.0000000000000000
  0.8125000000000001  0.3125000000000000  0.1875000000000000
  0.8750000000000001  0.3750000000000001  0.3750000000000001
  0.5625000000000000  0.1875000000000000  0.0625000000000000
  0.3750000000000001  0.8750000000000001  0.8750000000000001
  0.4375000000000001  0.8125000000000001  0.8125000000000001
  0.1875000000000000  0.6875000000000000  0.9375000000000000
  0.0000000000000000  0.6250000000000000  0.7500000000000001
  0.0625000000000000  0.5625000000000000  0.9375000000000000
  0.0000000000000000  0.5000000000000000  0.8750000000000001
  0.0625000000000000  0.6875000000000000  0.8125000000000001
  0.1250000000000000  0.6250000000000000  0.6250000000000000
  0.1875000000000000  0.5625000000000000  0.5625000000000000
  0.1250000000000000  0.5000000000000000  0.5000000000000000
  0.1875000000000000  0.6875000000000000  0.6875000000000000
  0.0000000000000000  0.6250000000000000  0.5000000000000000
  0.0625000000000000  0.5625000000000000  0.6875000000000000
  0.0000000000000000  0.5000000000000000  0.6250000000000000
  0.0625000000000000  0.6875000000000000  0.5625000000000000
  0.1250000000000000  0.5000000000000000  0.7500000000000001
  0.1250000000000000  0.6250000000000000  0.3750000000000001
  0.1250000000000000  0.5000000000000000  0.2500000000000000
  0.1875000000000000  0.6875000000000000  0.4375000000000001
  0.0000000000000000  0.6250000000000000  0.2500000000000000
  0.0625000000000000  0.5625000000000000  0.4375000000000001
  0.0000000000000000  0.5000000000000000  0.3750000000000001
  0.0625000000000000  0.6875000000000000  0.3125000000000000
  0.1250000000000000  0.6250000000000000  0.1250000000000000
  0.1875000000000000  0.5625000000000000  0.0625000000000000
  0.1250000000000000  0.5000000000000000  0.0000000000000000
  0.1875000000000000  0.6875000000000000  0.1875000000000000
  0.0000000000000000  0.6250000000000000  0.0000000000000000
  0.0625000000000000  0.5625000000000000  0.1875000000000000
  0.0000000000000000  0.5000000000000000  0.1250000000000000
  0.1875000000000000  0.5625000000000000  0.3125000000000000
  0.0625000000000000  0.6875000000000000  0.0625000000000000
  0.1875000000000000  0.5625000000000000  0.8125000000000001
  0.0625000000000000  0.9375000000000000  0.0625000000000000
  0.1875000000000000  0.9375000000000000  0.9375000000000000
  0.0000000000000000  0.8750000000000001  0.7500000000000001
  0.0625000000000000  0.8125000000000001  0.9375000000000000
  0.0000000000000000  0.7500000000000001  0.8750000000000001
  0.0625000000000000  0.9375000000000000  0.8125000000000001
  0.1250000000000000  0.8750000000000001  0.6250000000000000
  0.1875000000000000  0.8125000000000001  0.5625000000000000
  0.1250000000000000  0.7500000000000001  0.5000000000000000
  0.1875000000000000  0.9375000000000000  0.6875000000000000
  0.0000000000000000  0.8750000000000001  0.5000000000000000
  0.0625000000000000  0.8125000000000001  0.6875000000000000
  0.0000000000000000  0.7500000000000001  0.6250000000000000
  0.0625000000000000  0.9375000000000000  0.5625000000000000
  0.1250000000000000  0.6250000000000000  0.8750000000000001
  0.1250000000000000  0.8750000000000001  0.3750000000000001
  0.1250000000000000  0.7500000000000001  0.2500000000000000
  0.1875000000000000  0.9375000000000000  0.4375000000000001
  0.0000000000000000  0.8750000000000001  0.2500000000000000
  0.0625000000000000  0.8125000000000001  0.4375000000000001
  0.0000000000000000  0.7500000000000001  0.3750000000000001
  0.0625000000000000  0.9375000000000000  0.3125000000000000
  0.1250000000000000  0.8750000000000001  0.1250000000000000
  0.1875000000000000  0.8125000000000001  0.0625000000000000
  0.1250000000000000  0.7500000000000001  0.0000000000000000
  0.1875000000000000  0.9375000000000000  0.1875000000000000
  0.0000000000000000  0.8750000000000001  0.0000000000000000
  0.0625000000000000  0.8125000000000001  0.1875000000000000
  0.0000000000000000  0.7500000000000001  0.1250000000000000
  0.1875000000000000  0.8125000000000001  0.3125000000000000
  0.1250000000000000  0.7500000000000001  0.7500000000000001
  0.1250000000000000  0.3750000000000001  0.8750000000000001
  0.1250000000000000  0.2500000000000000  0.7500000000000001
  0.1875000000000000  0.1875000000000000  0.9375000000000000
  0.0000000000000000  0.1250000000000000  0.7500000000000001
  0.0625000000000000  0.0625000000000000  0.9375000000000000
  0.0000000000000000  0.0000000000000000  0.8750000000000001
  0.0625000000000000  0.1875000000000000  0.8125000000000001
  0.1250000000000000  0.1250000000000000  0.6250000000000000
  0.1875000000000000  0.0625000000000000  0.5625000000000000
  0.1250000000000000  0.0000000000000000  0.5000000000000000
  0.1875000000000000  0.1875000000000000  0.6875000000000000
  0.0000000000000000  0.1250000000000000  0.5000000000000000
  0.0625000000000000  0.0625000000000000  0.6875000000000000
  0.0000000000000000  0.0000000000000000  0.6250000000000000
  0.0625000000000000  0.1875000000000000  0.5625000000000000
  0.1250000000000000  0.0000000000000000  0.7500000000000001
  0.1250000000000000  0.1250000000000000  0.3750000000000001
  0.1250000000000000  0.0000000000000000  0.2500000000000000
  0.1875000000000000  0.1875000000000000  0.4375000000000001
  0.0000000000000000  0.1250000000000000  0.2500000000000000
  0.0625000000000000  0.0625000000000000  0.4375000000000001
  0.0000000000000000  0.0000000000000000  0.3750000000000001
  0.0625000000000000  0.1875000000000000  0.3125000000000000
  0.1250000000000000  0.1250000000000000  0.1250000000000000
  0.1875000000000000  0.0625000000000000  0.0625000000000000
  0.1250000000000000  0.0000000000000000  0.0000000000000000
  0.1875000000000000  0.1875000000000000  0.1875000000000000
  0.0000000000000000  0.1250000000000000  0.0000000000000000
  0.0625000000000000  0.0625000000000000  0.1875000000000000
  0.0000000000000000  0.0000000000000000  0.1250000000000000
  0.1875000000000000  0.0625000000000000  0.3125000000000000
  0.1875000000000000  0.3125000000000000  0.8125000000000001
  0.1875000000000000  0.0625000000000000  0.8125000000000001
  0.0625000000000000  0.4375000000000001  0.0625000000000000
  0.1875000000000000  0.4375000000000001  0.9375000000000000
  0.0000000000000000  0.3750000000000001  0.7500000000000001
  0.0625000000000000  0.3125000000000000  0.9375000000000000
  0.0000000000000000  0.2500000000000000  0.8750000000000001
  0.0625000000000000  0.4375000000000001  0.8125000000000001
  0.1250000000000000  0.3750000000000001  0.6250000000000000
  0.1875000000000000  0.3125000000000000  0.5625000000000000
  0.1250000000000000  0.2500000000000000  0.5000000000000000
  0.1875000000000000  0.4375000000000001  0.6875000000000000
  0.0000000000000000  0.3750000000000001  0.5000000000000000
  0.0625000000000000  0.3125000000000000  0.6875000000000000
  0.0000000000000000  0.2500000000000000  0.6250000000000000
  0.0625000000000000  0.4375000000000001  0.5625000000000000
  0.1250000000000000  0.1250000000000000  0.8750000000000001
  0.1250000000000000  0.3750000000000001  0.3750000000000001
  0.1250000000000000  0.2500000000000000  0.2500000000000000
  0.1875000000000000  0.4375000000000001  0.4375000000000001
  0.0000000000000000  0.3750000000000001  0.2500000000000000
  0.0625000000000000  0.3125000000000000  0.4375000000000001
  0.0000000000000000  0.2500000000000000  0.3750000000000001
  0.0625000000000000  0.4375000000000001  0.3125000000000000
  0.1250000000000000  0.3750000000000001  0.1250000000000000
  0.1875000000000000  0.3125000000000000  0.0625000000000000
  0.1250000000000000  0.2500000000000000  0.0000000000000000
  0.1875000000000000  0.4375000000000001  0.1875000000000000
  0.0000000000000000  0.3750000000000001  0.0000000000000000
  0.0625000000000000  0.3125000000000000  0.1875000000000000
  0.0000000000000000  0.2500000000000000  0.1250000000000000
  0.1875000000000000  0.3125000000000000  0.3125000000000000
  0.1875000000000000  0.8125000000000001  0.8125000000000001
  0.1250000000000000  0.8750000000000001  0.8750000000000001
  0.3125000000000000  0.1875000000000000  0.0625000000000000
  0.3750000000000001  0.5000000000000000  0.7500000000000001
  0.4375000000000001  0.6875000000000000  0.9375000000000000
  0.2500000000000000  0.6250000000000000  0.7500000000000001
  0.3125000000000000  0.5625000000000000  0.9375000000000000
  0.2500000000000000  0.5000000000000000  0.8750000000000001
  0.3125000000000000  0.6875000000000000  0.8125000000000001
  0.3750000000000001  0.6250000000000000  0.6250000000000000
  0.4375000000000001  0.5625000000000000  0.5625000000000000
  0.3750000000000001  0.5000000000000000  0.5000000000000000
  0.4375000000000001  0.6875000000000000  0.6875000000000000
  0.2500000000000000  0.6250000000000000  0.5000000000000000
  0.3125000000000000  0.5625000000000000  0.6875000000000000
  0.2500000000000000  0.5000000000000000  0.6250000000000000
  0.4375000000000001  0.5625000000000000  0.8125000000000001
  0.3125000000000000  0.6875000000000000  0.5625000000000000
  0.4375000000000001  0.5625000000000000  0.3125000000000000
  0.3750000000000001  0.5000000000000000  0.2500000000000000
  0.4375000000000001  0.6875000000000000  0.4375000000000001
  0.2500000000000000  0.6250000000000000  0.2500000000000000
  0.3125000000000000  0.5625000000000000  0.4375000000000001
  0.2500000000000000  0.5000000000000000  0.3750000000000001
  0.3125000000000000  0.6875000000000000  0.3125000000000000
  0.3750000000000001  0.6250000000000000  0.1250000000000000
  0.4375000000000001  0.5625000000000000  0.0625000000000000
  0.3750000000000001  0.5000000000000000  0.0000000000000000
  0.4375000000000001  0.6875000000000000  0.1875000000000000
  0.2500000000000000  0.6250000000000000  0.0000000000000000
  0.3125000000000000  0.5625000000000000  0.1875000000000000
  0.3750000000000001  0.6250000000000000  0.3750000000000001
  0.2500000000000000  0.5000000000000000  0.1250000000000000
  0.3750000000000001  0.6250000000000000  0.8750000000000001
  0.2500000000000000  0.7500000000000001  0.1250000000000000
  0.3750000000000001  0.7500000000000001  0.7500000000000001
  0.4375000000000001  0.9375000000000000  0.9375000000000000
  0.2500000000000000  0.8750000000000001  0.7500000000000001
  0.3125000000000000  0.8125000000000001  0.9375000000000000
  0.2500000000000000  0.7500000000000001  0.8750000000000001
  0.3125000000000000  0.9375000000000000  0.8125000000000001
  0.3750000000000001  0.8750000000000001  0.6250000000000000
  0.4375000000000001  0.8125000000000001  0.5625000000000000
  0.3750000000000001  0.7500000000000001  0.5000000000000000
  0.4375000000000001  0.9375000000000000  0.6875000000000000
  0.2500000000000000  0.8750000000000001  0.5000000000000000
  0.3125000000000000  0.8125000000000001  0.6875000000000000
  0.2500000000000000  0.7500000000000001  0.6250000000000000
  0.3125000000000000  0.9375000000000000  0.0625000000000000
  0.3125000000000000  0.9375000000000000  0.5625000000000000
  0.4375000000000001  0.8125000000000001  0.3125000000000000
  0.3750000000000001  0.7500000000000001  0.2500000000000000
  0.4375000000000001  0.9375000000000000  0.4375000000000001
  0.2500000000000000  0.8750000000000001  0.2500000000000000
  0.3125000000000000  0.8125000000000001  0.4375000000000001
  0.2500000000000000  0.7500000000000001  0.3750000000000001
  0.3125000000000000  0.9375000000000000  0.3125000000000000
  0.3750000000000001  0.8750000000000001  0.1250000000000000
  0.4375000000000001  0.8125000000000001  0.0625000000000000
  0.3750000000000001  0.7500000000000001  0.0000000000000000
  0.4375000000000001  0.9375000000000000  0.1875000000000000
  0.2500000000000000  0.8750000000000001  0.0000000000000000
  0.3125000000000000  0.8125000000000001  0.1875000000000000
  0.3750000000000001  0.8750000000000001  0.3750000000000001
  0.3125000000000000  0.6875000000000000  0.0625000000000000
  0.3750000000000001  0.3750000000000001  0.8750000000000001
  0.4375000000000001  0.3125000000000000  0.8125000000000001
  0.4375000000000001  0.1875000000000000  0.9375000000000000
  0.2500000000000000  0.1250000000000000  0.7500000000000001
  0.3125000000000000  0.0625000000000000  0.9375000000000000
  0.2500000000000000  0.0000000000000000  0.8750000000000001
  0.3125000000000000  0.1875000000000000  0.8125000000000001
  0.3750000000000001  0.1250000000000000  0.6250000000000000
  0.4375000000000001  0.0625000000000000  0.5625000000000000
  0.3750000000000001  0.0000000000000000  0.5000000000000000
  0.4375000000000001  0.1875000000000000  0.6875000000000000
  0.2500000000000000  0.1250000000000000  0.5000000000000000
  0.3125000000000000  0.0625000000000000  0.6875000000000000
  0.2500000000000000  0.0000000000000000  0.6250000000000000
  0.3125000000000000  0.1875000000000000  0.5625000000000000
  0.3750000000000001  0.0000000000000000  0.7500000000000001
  0.3750000000000001  0.1250000000000000  0.3750000000000001
  0.3750000000000001  0.0000000000000000  0.2500000000000000
  0.4375000000000001  0.1875000000000000  0.4375000000000001
  0.2500000000000000  0.1250000000000000  0.2500000000000000
  0.3125000000000000  0.0625000000000000  0.4375000000000001
  0.2500000000000000  0.0000000000000000  0.3750000000000001
  0.3125000000000000  0.1875000000000000  0.3125000000000000
  0.3750000000000001  0.1250000000000000  0.1250000000000000
  0.4375000000000001  0.0625000000000000  0.0625000000000000
  0.3750000000000001  0.0000000000000000  0.0000000000000000
  0.4375000000000001  0.1875000000000000  0.1875000000000000
  0.2500000000000000  0.1250000000000000  0.0000000000000000
  0.3125000000000000  0.0625000000000000  0.1875000000000000
  0.2500000000000000  0.0000000000000000  0.1250000000000000
  0.4375000000000001  0.0625000000000000  0.3125000000000000
  0.4375000000000001  0.0625000000000000  0.8125000000000001
  0.3750000000000001  0.1250000000000000  0.8750000000000001
  0.3125000000000000  0.4375000000000001  0.0625000000000000
  0.3750000000000001  0.2500000000000000  0.7500000000000001
  0.4375000000000001  0.4375000000000001  0.9375000000000000
  0.2500000000000000  0.3750000000000001  0.7500000000000001
  0.3125000000000000  0.3125000000000000  0.9375000000000000
  0.2500000000000000  0.2500000000000000  0.8750000000000001
  0.3125000000000000  0.4375000000000001  0.8125000000000001